(set-logic BV) (define-fun origCir ((i_9 Bool) (i_7 Bool) (i_6 Bool) (i_8 Bool)) Bool (and (not (and (not (and i_7 (not i_6))) (not i_9))) i_8)) (synth-fun skel ((i_9 Bool) (i_7 Bool) (i_6 Bool) (i_8 Bool)) Bool) (declare-var i_9 Bool) (declare-var i_7 Bool) (declare-var i_6 Bool) (declare-var i_8 Bool) (constraint (= (origCir i_9 i_7 i_6 i_8) (skel i_9 i_7 i_6 i_8))) (check-synth)
